100 5000
2 28
1 38
2 16
1 26
2 45
2 10
2 23
1 3
2 12
2 20
1 37
1 49
2 49
2 48
2 37
2 18
1 29
1 32
1 19
2 31
2 45
1 15
2 36
1 34
2 21
2 14
1 9
2 23
1 39
1 8
2 41
1 11
1 17
1 32
1 50
2 20
1 31
2 33
2 12
2 42
1 48
1 3
1 15
1 19
2 5
1 43
2 16
1 10
1 35
2 33
1 2
2 43
1 13
2 22
1 24
1 40
1 44
2 5
2 40
2 38
1 46
2 8
2 17
2 6
2 34
1 1
2 21
2 13
2 9
2 7
1 6
2 27
2 1
1 27
2 36
1 35
1 4
2 50
2 42
2 11
2 25
1 26
1 2
2 41
1 7
1 18
2 4
2 28
2 44
1 22
2 24
1 47
1 14
1 29
2 39
1 25
2 30
1 30
2 47
2 46
